GLPSOL--GLPK LP/MIP Solver 5.0
Parameter(s) specified in the command line:
 --lp ../modeles/20_259.lp --log 20_259.log
Reading problem data from '../modeles/20_259.lp'...
5261 rows, 10400 columns, 36360 non-zeros
5180 integer variables, all of which are binary
15687 lines were read
GLPK Integer Optimizer 5.0
5261 rows, 10400 columns, 36360 non-zeros
5180 integer variables, all of which are binary
Preprocessing...
5160 constraint coefficient(s) were reduced
5261 rows, 10380 columns, 36340 non-zeros
5180 integer variables, all of which are binary
Scaling...
 A: min|aij| =  5.963e-05  max|aij| =  4.000e+00  ratio =  6.708e+04
GM: min|aij| =  6.214e-02  max|aij| =  1.609e+01  ratio =  2.590e+02
EQ: min|aij| =  3.861e-03  max|aij| =  1.000e+00  ratio =  2.590e+02
2N: min|aij| =  3.816e-03  max|aij| =  1.764e+00  ratio =  4.623e+02
Constructing initial basis...
Size of triangular part is 5261
Solving LP relaxation...
GLPK Simplex Optimizer 5.0
5261 rows, 10380 columns, 36340 non-zeros
      0: obj =   4.000000000e+01 inf =   9.950e+01 (41)
Perturbing LP to avoid stalling [199]...
    339: obj =   4.994111509e-01 inf =   0.000e+00 (0)
Removing LP perturbation [1105]...
*  1105: obj =  -4.471904302e+00 inf =   1.058e-14 (0) 1
OPTIMAL LP SOLUTION FOUND
Integer optimization begins...
Long-step dual simplex will be used
+  1105: mip =     not found yet >=              -inf        (1; 0)
+  1131: >>>>>  -4.471904302e+00 >=  -4.471904302e+00 < 0.1% (25; 0)
+  1131: mip =  -4.471904302e+00 >=     tree is empty   0.0% (0; 49)
INTEGER OPTIMAL SOLUTION FOUND
Time used:   0.5 secs
Memory used: 15.0 Mb (15756212 bytes)
